NAME          ClpDefau
ROWS
 N  OBJROW
 L  R_168_0
 L  R_168_1
 L  R_168_2
 L  R_168_3
 L  R_168_4
 L  R_168_5
 L  R_168_6
 L  R_168_7
 L  R_168_8
 L  R_168_9
 L  R_168_10
 L  R_168_11
 L  R_168_12
 L  R_168_13
 L  R_168_14
 L  R_168_15
COLUMNS
    x_0       OBJROW     -1.           R_168_0   5.          
    x_0       R_168_1   21.            R_168_3   93.         
    x_0       R_168_5   48.            R_168_6   57.         
    x_0       R_168_7   5.             R_168_9   41.         
    x_0       R_168_11  68.            R_168_12  23.         
    x_0       R_168_13  4.             R_168_14  23.         
    x_0       R_168_15  66.         
    x_1       OBJROW     -2.           R_168_0   66.         
    x_1       R_168_1   24.            R_168_3   54.         
    x_1       R_168_4   98.            R_168_5   76.         
    x_1       R_168_6   58.            R_168_7   97.         
    x_1       R_168_8   95.            R_168_9   68.         
    x_1       R_168_10  36.            R_168_12  46.         
    x_1       R_168_13  59.            R_168_15  73.         
    x_2       OBJROW     -2.           R_168_0   72.         
    x_2       R_168_1   63.            R_168_2   42.         
    x_2       R_168_6   99.            R_168_8   91.         
    x_2       R_168_10  65.            R_168_11  76.         
    x_2       R_168_12  94.            R_168_13  66.         
    x_2       R_168_14  88.            R_168_15  10.         
    x_3       OBJROW     -6.           R_168_0   44.         
    x_3       R_168_1   25.            R_168_3   74.         
    x_3       R_168_4   35.            R_168_5   88.         
    x_3       R_168_7   67.            R_168_8   35.         
    x_3       R_168_9   27.            R_168_11  92.         
    x_3       R_168_12  8.             R_168_13  23.         
    x_3       R_168_14  4.             R_168_15  9.          
    x_4       OBJROW     -3.           R_168_0   94.         
    x_4       R_168_2   17.            R_168_4   24.         
    x_4       R_168_5   1.             R_168_6   6.          
    x_4       R_168_7   32.            R_168_8   5.          
    x_4       R_168_9   79.            R_168_10  96.         
    x_4       R_168_11  44.            R_168_12  40.         
    x_4       R_168_13  99.            R_168_14  6.          
    x_5       OBJROW     -5.           R_168_0   80.         
    x_5       R_168_1   61.            R_168_3   88.         
    x_5       R_168_4   14.            R_168_5   17.         
    x_5       R_168_6   100.           R_168_7   66.         
    x_5       R_168_8   44.            R_168_9   78.         
    x_5       R_168_11  90.            R_168_12  18.         
    x_5       R_168_13  33.            R_168_14  21.         
    x_5       R_168_15  59.         
    x_6       OBJROW     -5.           R_168_0   66.         
    x_6       R_168_2   5.             R_168_4   57.         
    x_6       R_168_5   11.            R_168_6   80.         
    x_6       R_168_7   80.            R_168_8   33.         
    x_6       R_168_9   36.            R_168_10  1.          
    x_6       R_168_11  50.            R_168_12  15.         
    x_6       R_168_13  12.            R_168_14  13.         
    x_6       R_168_15  97.         
    x_7       OBJROW     -10.          R_168_0   28.         
    x_7       R_168_1   86.            R_168_2   40.         
    x_7       R_168_3   49.            R_168_4   98.         
    x_7       R_168_6   56.            R_168_7   3.          
    x_7       R_168_8   7.             R_168_11  13.         
    x_7       R_168_12  62.            R_168_13  67.         
    x_7       R_168_15  47.         
RHS
    RHS       R_168_0   228.           R_168_1   270.        
    RHS       R_168_2   237.           R_168_3   89.         
    RHS       R_168_4   291.           R_168_5   131.        
    RHS       R_168_6   133.           R_168_7   236.        
    RHS       R_168_8   181.           R_168_9   424.        
    RHS       R_168_10  88.            R_168_11  311.        
    RHS       R_168_12  110.           R_168_13  290.        
    RHS       R_168_14  406.           R_168_15  328.        
BOUNDS
 UI BOUND     x_0       10.         
 UI BOUND     x_1       10.         
 UI BOUND     x_2       10.         
 UI BOUND     x_3       10.         
 UI BOUND     x_4       10.         
 UI BOUND     x_5       10.         
 UI BOUND     x_6       10.         
 UI BOUND     x_7       10.         
ENDATA
